Solver command line: ['/usr/local/bin/gurobi.sh']

Set parameter WLSAccessID
Set parameter WLSSecret
Set parameter LicenseID to value 2606900
Academic license 2606900 - for non-commercial use only - registered to so___@htwk-leipzig.de
Read LP format model from file /var/folders/jf/5sh4zzv94dxbcz8g7tg2jq5h0000gn/T/tmpjevklu0h.pyomo.lp
Reading time = 2.14 seconds
objective: 967944 rows, 875999 columns, 2168046 nonzeros
Set parameter MIPGap to value 0.02
Gurobi Optimizer version 12.0.1 build v12.0.1rc0 (mac64[rosetta2] - Darwin 24.4.0 24E263)

CPU model: Apple M3
Thread count: 8 physical cores, 8 logical processors, using up to 8 threads

Non-default parameters:
MIPGap  0.02

Academic license 2606900 - for non-commercial use only - registered to so___@htwk-leipzig.de
Optimize a model with 967944 rows, 875999 columns and 2168046 nonzeros
Model fingerprint: 0x8aaee987
Model has 8759 quadratic constraints
Variable types: 753360 continuous, 122639 integer (105120 binary)
Coefficient statistics:
  Matrix range     [6e-03, 2e+02]
  QMatrix range    [1e+00, 1e+00]
  Objective range  [1e-02, 3e+02]
  Bounds range     [1e+00, 3e+00]
  RHS range        [8e-05, 1e+04]
Presolve removed 774312 rows and 656082 columns
Presolve time: 0.45s
Presolved: 193632 rows, 219917 columns, 612600 nonzeros
Variable types: 145423 continuous, 74494 integer (65734 binary)
Performing another presolve...
Presolve removed 70079 rows and 70079 columns
Presolve time: 4.69s
Deterministic concurrent LP optimizer: primal and dual simplex
Showing primal log only...


Root simplex log...

Iteration    Objective       Primal Inf.    Dual Inf.      Time
       0    2.2306269e+07   5.599615e+06   7.942620e+13      6s
Concurrent spin time: 0.32s (can be avoided by choosing Method=3)

Solved with dual simplex

Root simplex log...

Iteration    Objective       Primal Inf.    Dual Inf.      Time
   52283   -6.0588701e+06   0.000000e+00   0.000000e+00      9s

Root relaxation: objective -6.058870e+06, 52283 iterations, 2.69 seconds (4.35 work units)
Total elapsed time = 8.53s (DegenMoves)

    Nodes    |    Current Node    |     Objective Bounds      |     Work
 Expl Unexpl |  Obj  Depth IntInf | Incumbent    BestBd   Gap | It/Node Time

     0     0 -6058870.1    0  755          - -6058870.1      -     -   10s
H    0     0                    -5251714.146 -6058870.1  15.4%     -   11s
     0     0 -6045484.3    0  771 -5251714.1 -6045484.3  15.1%     -   13s
     0     0 -6042939.6    0  723 -5251714.1 -6042939.6  15.1%     -   13s
     0     0 -6042633.5    0  718 -5251714.1 -6042633.5  15.1%     -   13s
     0     0 -6042633.5    0  718 -5251714.1 -6042633.5  15.1%     -   13s
     0     0 -6037865.5    0  694 -5251714.1 -6037865.5  15.0%     -   14s
     0     0 -6035123.1    0  641 -5251714.1 -6035123.1  14.9%     -   15s
     0     0 -6034927.5    0  652 -5251714.1 -6034927.5  14.9%     -   15s
     0     0 -6034915.8    0  651 -5251714.1 -6034915.8  14.9%     -   15s
     0     0 -6034912.3    0  652 -5251714.1 -6034912.3  14.9%     -   15s
     0     0 -6033112.4    0  676 -5251714.1 -6033112.4  14.9%     -   16s
     0     0 -6032555.2    0  685 -5251714.1 -6032555.2  14.9%     -   18s
     0     0 -6032481.9    0  685 -5251714.1 -6032481.9  14.9%     -   18s
     0     0 -6032464.7    0  692 -5251714.1 -6032464.7  14.9%     -   18s
     0     0 -6032429.5    0  689 -5251714.1 -6032429.5  14.9%     -   18s
     0     0 -6032429.5    0  691 -5251714.1 -6032429.5  14.9%     -   18s
H    0     0                    -5253544.517 -6032429.5  14.8%     -   19s
H    0     0                    -5260682.935 -6032429.5  14.7%     -   19s
H    0     0                    -5260998.538 -6032429.5  14.7%     -   19s
H    0     0                    -5261213.115 -6032429.5  14.7%     -   20s
H    0     0                    -5261255.145 -6032429.5  14.7%     -   20s
     0     0 -6031991.9    0  670 -5261255.1 -6031991.9  14.6%     -   20s
H    0     0                    -5289392.151 -6031991.9  14.0%     -   21s
H    0     0                    -5290119.412 -6031991.9  14.0%     -   21s
H    0     0                    -5291058.996 -6031991.9  14.0%     -   21s
H    0     0                    -5291223.186 -6031844.0  14.0%     -   21s
H    0     0                    -5291410.976 -6031844.0  14.0%     -   21s
H    0     0                    -5291502.359 -6031844.0  14.0%     -   22s
H    0     0                    -5291734.084 -6031844.0  14.0%     -   22s
H    0     0                    -5291843.943 -6031844.0  14.0%     -   22s
H    0     0                    -5292041.167 -6031844.0  14.0%     -   22s
H    0     0                    -5292063.233 -6031844.0  14.0%     -   22s
     0     0 -6031844.0    0  675 -5292063.2 -6031844.0  14.0%     -   22s
     0     0 -6031825.8    0  669 -5292063.2 -6031825.8  14.0%     -   22s
     0     0 -6031820.7    0  670 -5292063.2 -6031820.7  14.0%     -   22s
     0     0 -6031819.7    0  671 -5292063.2 -6031819.7  14.0%     -   22s
     0     0 -6031720.7    0  694 -5292063.2 -6031720.7  14.0%     -   23s
H    0     0                    -5330581.847 -6031685.7  13.2%     -   24s
     0     0 -6031685.7    0  696 -5330581.8 -6031685.7  13.2%     -   24s
     0     0 -6031682.4    0  705 -5330581.8 -6031682.4  13.2%     -   24s
     0     0 -6031675.9    0  710 -5330581.8 -6031675.9  13.2%     -   24s
     0     0 -6031675.9    0  713 -5330581.8 -6031675.9  13.2%     -   24s
     0     0 -6031675.9    0  712 -5330581.8 -6031675.9  13.2%     -   25s
     0     0 -6031675.9    0  712 -5330581.8 -6031675.9  13.2%     -   25s
     0     0 -6031675.9    0  711 -5330581.8 -6031675.9  13.2%     -   26s
     0     0 -6031672.0    0  529 -5330581.8 -6031672.0  13.2%     -   27s
H    0     0                    -5354259.936 -6031672.0  12.7%     -   28s
H    0     0                    -5354392.779 -6031672.0  12.6%     -   29s
H    0     0                    -5357159.491 -6031672.0  12.6%     -   29s
     0     2 -6031672.0    0  516 -5357159.5 -6031672.0  12.6%     -   30s
H   26    56                    -5358772.743 -6031672.0  12.6%   122   32s
   125   297 -6031672.0   12  616 -5358772.7 -6031672.0  12.6%  29.4   36s
   296   716 -6031672.0   23  616 -5358772.7 -6031672.0  12.6%  14.9   40s
   715   935 -6030580.1   51  608 -5358772.7 -6031672.0  12.6%   8.0   47s
H  716   935                    -5416415.500 -6031672.0  11.4%   7.9   47s
H  779   935                    -5420574.328 -6031672.0  11.3%   7.4   47s
H  816   935                    -5420912.153 -6031672.0  11.3%   7.2   47s
H  850   935                    -5425138.494 -6031672.0  11.2%   7.0   48s
   934  1744 -6030580.1   52  607 -5425138.5 -6031672.0  11.2%   6.5   55s
H 1640  1744                    -5799104.552 -6031672.0  4.01%   4.7   55s
  1743  2574 -6030529.7  134  601 -5799104.6 -6031672.0  4.01%   4.6   60s
H 3203  3212                    -5857118.103 -6031672.0  2.98%   3.8   68s
  3211  3428 -6025880.0  302  572 -5857118.1 -6031672.0  2.98%   3.8   75s
H 3237  3428                    -5859021.834 -6031672.0  2.95%   3.8   75s
  4270  4279 -6023543.2  414  541 -5859021.8 -6031672.0  2.95%   3.4   84s
H 4278  4287                    -5883814.712 -6031672.0  2.51%   3.4   95s
H 4279  4287                    -5884477.262 -6031672.0  2.50%   3.4   95s
H 4285  4287                    -5898230.681 -6031672.0  2.26%   3.4   95s
H 4353  4894                    -5898238.140 -6031672.0  2.26%   3.5   99s
H 4435  4894                    -5898248.522 -6031672.0  2.26%   3.6   99s
  4893  5150 -6021628.6  469  492 -5898248.5 -6031672.0  2.26%   3.9  103s
  5149  5215 -6020987.3  495  491 -5898248.5 -6031672.0  2.26%   4.1  108s
H 5150  5215                    -5898745.737 -6031672.0  2.25%   4.1  108s
H 5151  5215                    -5899653.234 -6031672.0  2.24%   4.1  108s
H 5154  5215                    -5910912.192 -6031672.0  2.04%   4.1  108s
  5214  6059 -6020987.3  496  491 -5910912.2 -6031672.0  2.04%   4.1  112s
  6058  6975 -6017510.3  603  483 -5910912.2 -6031672.0  2.04%   4.1  115s
H 6974  7596                    -5911904.632 -6031672.0  2.03%   3.8  119s
H 7595  7596                    -5913562.887 -6031672.0  2.00%   3.6  123s

Cutting planes:
  Learned: 9
  Gomory: 186
  Cover: 558
  Implied bound: 202
  MIR: 1016
  Flow cover: 715
  Network: 3
  RLT: 34
  Relax-and-lift: 148

Explored 7595 nodes (102104 simplex iterations) in 125.28 seconds (176.87 work units)
Thread count was 8 (of 8 available processors)

Solution count 10: -5.91356e+06 -5.9119e+06 -5.89965e+06 ... -5.85902e+06

Optimal solution found (tolerance 2.00e-02)
Best objective -5.913562887500e+06, best bound -6.031671958572e+06, gap 1.9973%

